; aiobotocore :: corpus-study/repo_src/aiobotocore/aiobotocore/utils.py :: LOCK '_RefCountedSession.__lock' :: naive encoding (verdict: unsat)
; Generated by snf-pipeline (encoder.py) -- run with any
; SMT-LIB2-compliant solver, e.g. `z3 aiobotocore__corpus-study_repo_src_aiobotocore_aiobotocore_utils.py___RefCountedSession.__lock__naive.smt2`
; benchmark generated from python API
(set-info :status unknown)
(assert
 false)
(check-sat)
